c WARNING: for repeatability, setting FPU to use double precision
d VARIABLES            222532       
d CONSTRAINTS          965885       
c ============================[ Problem Statistics ]=============================
c |                                                                             |
c |  Number of variables:        222532                                         |
c |  Number of clauses:          965885                                         |
c |  Parse time:                   0.15 s                                       |
c |                                                                             |
c ============================[ Search Statistics ]==============================
c | Conflicts |          ORIGINAL         |          LEARNT          | Progress |
c |           |    Vars  Clauses Literals |    Limit  Clauses Lit/Cl |          |
c ===============================================================================
c |       100 |  183067   863859  2095785 |   316748      100     21 | 17.735 % |
c |       250 |  183067   863859  2095785 |   348423      250     54 | 17.735 % |
c |       475 |  183067   863859  2095785 |   383265      475     56 | 17.735 % |
c |       812 |  183067   863859  2095785 |   421591      812     79 | 17.735 % |
c |      1318 |  183067   863859  2095785 |   463751     1318     96 | 17.735 % |
c |      2077 |  183067   863859  2095785 |   510126     2077    104 | 17.735 % |
c |      3216 |  183067   863859  2095785 |   561138     3216    122 | 17.735 % |
c |      4924 |  183067   863859  2095785 |   617252     4924    118 | 17.735 % |
c |      7486 |  183067   863859  2095785 |   678978     7486    164 | 17.735 % |
c |     11330 |  183067   863859  2095785 |   746875    11330    166 | 17.735 % |
c |     17096 |  183067   863859  2095785 |   821563    17096    176 | 17.735 % |
c |     25745 |  183066   863849  2095762 |   903719    25738    191 | 17.735 % |
c |     38719 |  183065   863837  2095733 |   994091    38709    200 | 17.735 % |
c ===============================================================================
c restarts              : 141
c conflicts             : 47288          (1445 /sec)
c decisions             : 329577         (0.00 % random) (10070 /sec)
c propagations          : 165270049      (5049490 /sec)
c conflict literals     : 8919747        (17.08 % deleted)
d RESTARTS             141
d FAILURES             47288        
d NODES                329577       
d BACKTRACKS           329577       
d PROPAGATIONS         165270049    
d NOGOODSIZE           188.63 
d MEMORY               114.00 
d TIME                 32.73 

s UNSATISFIABLE
